data;


param d:= 100;
param r:=5;
param p:=0.700000;
param M:=1000;
param U:=
         1         1        9.255578e-01
         2         1       -2.765409e-01
         3         1        1.844109e-01
         4         1        1.387311e+00
         5         1        2.584749e-01
         6         1       -8.486390e-01
         7         1        5.615326e-01
         8         1        8.317489e-01
         9         1       -9.234722e-01
        10         1       -2.780352e-01
        11         1        1.994062e-02
        12         1        1.676286e+00
        13         1        4.075535e-01
        14         1       -8.941276e-01
        15         1       -8.627192e-01
        16         1        5.785372e-01
        17         1       -1.073571e+00
        18         1        1.216010e+00
        19         1        1.290116e+00
        20         1        9.760276e-01
        21         1       -2.059454e+00
        22         1       -7.281995e-01
        23         1        7.302277e-01
        24         1       -6.008029e-01
        25         1        6.742803e-01
        26         1       -9.452347e-01
        27         1       -2.367610e+00
        28         1        6.816359e-03
        29         1       -1.895760e-01
        30         1       -9.973177e-02
        31         1        1.888435e+00
        32         1       -6.651265e-01
        33         1        1.971707e+00
        34         1       -1.838099e-01
        35         1        6.019047e-01
        36         1        1.274825e+00
        37         1        7.018367e-02
        38         1        1.022157e+00
        39         1        3.421203e-02
        40         1        7.069598e-01
        41         1       -4.810436e-01
        42         1       -2.220633e-01
        43         1        5.493203e-01
        44         1        1.886642e-01
        45         1       -1.925313e+00
        46         1       -7.620630e-01
        47         1       -1.082305e+00
        48         1       -4.689874e-01
        49         1        3.064186e-01
        50         1        7.743606e-01
        51         1        3.014624e-01
        52         1        6.290877e-02
        53         1        1.179772e+00
        54         1        1.141097e+00
        55         1        1.001040e+00
        56         1       -1.029012e+00
        57         1        6.193257e-01
        58         1        5.224750e-01
        59         1       -7.632174e-01
        60         1        2.524327e-01
        61         1        8.820169e-01
        62         1       -6.995896e-01
        63         1        3.609863e-01
        64         1        3.580327e-01
        65         1       -1.316416e+00
        66         1        4.071229e-01
        67         1       -1.123912e+00
        68         1        1.109800e+00
        69         1       -1.967677e+00
        70         1        2.177511e+00
        71         1        7.458358e-01
        72         1       -3.725331e-01
        73         1       -1.668125e+00
        74         1        3.442505e-01
        75         1        5.171339e-01
        76         1       -7.840884e-01
        77         1       -6.361355e-01
        78         1        5.109838e-01
        79         1        1.025269e+00
        80         1        1.076310e+00
        81         1       -2.934651e-01
        82         1        1.068070e+00
        83         1        7.218768e-01
        84         1       -1.018688e+00
        85         1        2.059311e+00
        86         1       -1.119657e+00
        87         1       -2.083577e+00
        88         1       -1.070964e+00
        89         1       -4.936101e-01
        90         1       -2.236084e-01
        91         1        1.658681e+00
        92         1       -2.209707e+00
        93         1        1.754708e+00
        94         1        1.859339e+00
        95         1       -1.828532e+00
        96         1       -1.568370e+00
        97         1        4.180710e-01
        98         1       -1.806244e+00
        99         1       -1.289054e+00
       100         1        1.437123e+00
         1         2       -9.470715e-01
         2         2        2.187358e-01
         3         2        9.375615e-01
         4         2        1.329367e+00
         5         2       -6.179441e-03
         6         2       -1.387855e+00
         7         2       -4.236180e-01
         8         2        1.186479e+00
         9         2        1.773173e-01
        10         2        7.548764e-01
        11         2        5.330462e-02
        12         2        4.633691e-01
        13         2       -6.357914e-02
        14         2       -1.020357e+00
        15         2        5.905026e-01
        16         2       -5.292525e-02
        17         2        2.858129e-01
        18         2        7.210799e-02
        19         2       -3.992967e-01
        20         2       -9.254079e-01
        21         2       -1.110167e-01
        22         2        6.017359e-01
        23         2        8.123827e-01
        24         2        1.161020e-01
        25         2        2.456316e-01
        26         2       -2.106865e+00
        27         2        1.911869e+00
        28         2       -1.715336e+00
        29         2        1.164897e+00
        30         2       -9.480239e-01
        31         2       -2.504374e-01
        32         2       -5.599858e-01
        33         2       -1.275640e-01
        34         2        1.785199e-01
        35         2       -3.853819e-02
        36         2       -7.192557e-01
        37         2       -1.339939e+00
        38         2       -9.413764e-03
        39         2        2.228706e+00
        40         2        1.080488e-01
        41         2        3.027645e-01
        42         2       -4.397549e-01
        43         2        8.128376e-01
        44         2       -1.108611e+00
        45         2        7.322534e-01
        46         2        3.643640e-01
        47         2       -7.847795e-02
        48         2        1.733485e+00
        49         2        1.125214e+00
        50         2        1.433755e+00
        51         2        5.410079e-01
        52         2       -4.343017e-01
        53         2        1.798437e+00
        54         2       -1.913765e+00
        55         2       -8.182841e-01
        56         2       -1.856132e+00
        57         2        5.428063e-01
        58         2       -3.452577e-01
        59         2       -1.110047e+00
        60         2        2.082352e+00
        61         2       -4.938760e-01
        62         2        1.181574e+00
        63         2        1.186345e+00
        64         2        4.152646e-01
        65         2       -5.925285e-02
        66         2        1.999977e-01
        67         2       -1.431449e+00
        68         2        2.969330e+00
        69         2        7.529768e-01
        70         2       -1.275027e-01
        71         2       -5.743036e-01
        72         2       -2.216642e+00
        73         2        8.486743e-01
        74         2       -1.839653e+00
        75         2       -6.709737e-01
        76         2        7.391554e-01
        77         2       -9.054617e-01
        78         2        1.804867e+00
        79         2       -3.447223e-02
        80         2       -2.051165e+00
        81         2       -8.577077e-01
        82         2        9.208164e-01
        83         2        1.452215e-02
        84         2       -8.291485e-01
        85         2       -8.180107e-01
        86         2        3.582053e-01
        87         2       -1.420567e+00
        88         2       -8.006351e-02
        89         2       -7.123373e-01
        90         2       -1.790092e+00
        91         2        4.088032e-01
        92         2       -2.679921e-01
        93         2       -4.698552e-01
        94         2       -7.368277e-02
        95         2        1.717202e+00
        96         2       -7.189700e-01
        97         2        7.081754e-01
        98         2       -8.293793e-01
        99         2        5.446345e-01
       100         2        1.356586e+00
         1         3       -1.272707e-01
         2         3       -2.578754e-01
         3         3       -5.007316e-01
         4         3        9.340640e-01
         5         3       -1.027630e+00
         6         3        2.409509e+00
         7         3       -6.710982e-01
         8         3       -2.260011e-01
         9         3       -1.110239e+00
        10         3        1.320976e+00
        11         3       -2.818199e+00
        12         3        5.855603e-01
        13         3       -4.943544e-01
        14         3       -8.892984e-01
        15         3       -6.376081e-01
        16         3       -5.253282e-01
        17         3       -1.512826e-01
        18         3        3.389941e-01
        19         3        9.212621e-01
        20         3       -1.907374e+00
        21         3        2.352642e-01
        22         3       -6.330089e-01
        23         3       -4.965496e-02
        24         3       -9.250118e-02
        25         3        1.609360e+00
        26         3        5.046293e-01
        27         3       -3.588354e-01
        28         3        8.486527e-01
        29         3       -3.034263e-01
        30         3        1.192133e+00
        31         3       -1.083799e+00
        32         3        1.157241e+00
        33         3       -6.219468e-01
        34         3       -1.082829e+00
        35         3        1.382044e+00
        36         3       -6.376469e-01
        37         3        6.350884e-01
        38         3        4.632341e-01
        39         3        8.004150e-01
        40         3        7.170240e-01
        41         3        1.180910e-01
        42         3        2.599259e-01
        43         3       -5.094262e-01
        44         3       -2.627563e-01
        45         3        3.564679e-01
        46         3        3.226269e-01
        47         3       -3.065805e-01
        48         3       -4.608883e-01
        49         3       -9.832271e-02
        50         3       -2.426775e-01
        51         3        3.221004e-01
        52         3        2.603707e-01
        53         3       -3.971945e-04
        54         3        2.672805e-01
        55         3        8.323007e-01
        56         3       -9.914023e-02
        57         3        7.714946e-01
        58         3       -1.045050e+00
        59         3        3.426455e-02
        60         3       -1.219446e+00
        61         3       -3.347278e-01
        62         3       -4.378293e-01
        63         3       -1.022311e+00
        64         3        7.966346e-01
        65         3       -1.619808e+00
        66         3        9.023875e-01
        67         3       -2.001516e-01
        68         3        4.423906e-01
        69         3       -7.075951e-01
        70         3       -1.664095e+00
        71         3       -7.146901e-01
        72         3       -5.469318e-01
        73         3       -2.836684e-01
        74         3       -5.977953e-01
        75         3       -2.943178e-01
        76         3       -2.505074e+00
        77         3        9.503995e-01
        78         3       -1.314859e+00
        79         3        1.795629e+00
        80         3        5.705001e-01
        81         3        1.152533e+00
        82         3        8.496080e-01
        83         3        1.274766e+00
        84         3       -6.507756e-01
        85         3       -4.389039e-01
        86         3       -2.070238e-01
        87         3        1.137912e-01
        88         3        1.674882e+00
        89         3       -5.910214e-01
        90         3        1.292532e+00
        91         3       -1.635114e-01
        92         3       -1.348073e+00
        93         3        4.138758e-01
        94         3       -1.759318e+00
        95         3        5.182138e-01
        96         3        4.603603e-01
        97         3        1.772906e-01
        98         3        4.419492e-01
        99         3       -1.257633e-01
       100         3       -3.135797e-01
         1         4       -8.122535e-01
         2         4        4.122534e-01
         3         4        4.334729e-01
         4         4       -9.640665e-02
         5         4       -1.151988e+00
         6         4        2.590115e-01
         7         4        6.284085e-01
         8         4        2.172728e-02
         9         4       -2.132525e+00
        10         4       -1.224536e-01
        11         4        4.997918e-01
        12         4       -6.940837e-01
        13         4        7.575073e-01
        14         4       -1.248703e+00
        15         4        1.229518e+00
        16         4        6.142268e-01
        17         4        5.058314e-01
        18         4        5.723152e-01
        19         4        1.271881e+00
        20         4       -1.272932e+00
        21         4       -2.990950e-01
        22         4       -1.684689e+00
        23         4       -2.449036e-01
        24         4        1.057703e+00
        25         4        5.077586e-01
        26         4       -1.299213e+00
        27         4       -5.528857e-01
        28         4        5.523932e-01
        29         4        7.109575e-01
        30         4        7.778694e-02
        31         4        9.569420e-01
        32         4       -6.557989e-01
        33         4       -8.213329e-01
        34         4        1.797399e-01
        35         4        1.367206e+00
        36         4        1.152168e+00
        37         4       -4.284813e-01
        38         4       -2.935647e-01
        39         4       -1.666908e+00
        40         4       -4.414804e-01
        41         4        1.896088e-02
        42         4       -1.159462e+00
        43         4        1.899886e+00
        44         4       -4.407910e-01
        45         4       -5.315096e-01
        46         4       -5.962905e-01
        47         4       -9.719288e-01
        48         4       -2.622024e-01
        49         4        7.171009e-01
        50         4       -2.584450e+00
        51         4       -3.446089e-01
        52         4       -1.388311e+00
        53         4       -6.828539e-01
        54         4        3.552326e-01
        55         4        4.175842e-02
        56         4        1.144425e+00
        57         4       -6.485496e-01
        58         4        2.037390e+00
        59         4        9.227816e-01
        60         4       -1.555981e-01
        61         4       -1.712383e-02
        62         4        3.012396e+00
        63         4        1.419663e+00
        64         4       -3.818223e-02
        65         4        7.008544e-02
        66         4       -1.131233e-02
        67         4        9.347190e-01
        68         4       -1.108357e+00
        69         4        7.855989e-01
        70         4        1.231527e-01
        71         4       -5.939269e-01
        72         4        1.790216e-01
        73         4       -2.271344e-01
        74         4        2.640833e+00
        75         4       -2.199111e+00
        76         4        7.844605e-01
        77         4        8.331548e-01
        78         4        1.619693e+00
        79         4        1.727501e+00
        80         4        9.568120e-01
        81         4       -6.724239e-01
        82         4        7.164806e-01
        83         4        2.757895e+00
        84         4       -6.791627e-01
        85         4        1.555923e-01
        86         4       -3.648941e-01
        87         4        9.863506e-01
        88         4       -1.230202e+00
        89         4       -1.964853e+00
        90         4       -2.200517e+00
        91         4       -2.228190e-01
        92         4       -1.827378e+00
        93         4        1.169091e+00
        94         4       -1.263856e-01
        95         4       -2.240982e+00
        96         4       -1.550301e+00
        97         4        2.801303e-01
        98         4       -1.297225e+00
        99         4        5.208944e-01
       100         4       -7.703785e-01
         1         5        3.108247e-02
         2         5        1.174451e+00
         3         5        1.505044e+00
         4         5        1.524377e+00
         5         5        2.560043e-01
         6         5        8.400674e-01
         7         5       -4.583705e-01
         8         5       -1.019338e-01
         9         5       -1.425145e+00
        10         5       -5.417864e-01
        11         5        2.961341e-01
        12         5       -1.462812e-01
        13         5        3.226417e-02
        14         5       -8.079958e-01
        15         5        9.017816e-01
        16         5        1.551390e+00
        17         5       -1.316298e-01
        18         5        5.745650e-01
        19         5       -2.362356e-01
        20         5        1.258312e+00
        21         5       -1.738698e-01
        22         5        2.092677e-01
        23         5        3.957536e-01
        24         5        1.480066e-01
        25         5       -5.202960e-01
        26         5       -8.090569e-01
        27         5        3.705071e-01
        28         5        1.317203e-01
        29         5        1.056602e+00
        30         5       -4.547260e-01
        31         5       -3.646667e-01
        32         5        9.188368e-01
        33         5        4.564762e-01
        34         5        1.014966e+00
        35         5        2.372781e+00
        36         5       -1.097058e+00
        37         5       -1.896643e-01
        38         5       -8.567333e-01
        39         5        2.771398e-02
        40         5        5.544104e-01
        41         5       -6.257107e-01
        42         5       -2.455763e-01
        43         5       -6.676500e-01
        44         5       -4.736939e-01
        45         5        1.692911e+00
        46         5        5.051404e-01
        47         5        1.612264e+00
        48         5       -1.651709e-01
        49         5       -9.133584e-01
        50         5        2.126984e-01
        51         5        5.531758e-02
        52         5       -8.327452e-01
        53         5        3.684045e-01
        54         5       -2.043655e-01
        55         5        1.346807e+00
        56         5       -1.257782e+00
        57         5        4.457870e-01
        58         5       -5.222757e-01
        59         5       -6.022729e-01
        60         5       -2.118838e+00
        61         5       -8.445344e-02
        62         5       -9.218203e-01
        63         5        4.046578e-01
        64         5        2.400827e-01
        65         5       -4.072503e-01
        66         5       -3.634906e-01
        67         5        3.193375e-01
        68         5       -1.955839e+00
        69         5       -3.481410e-01
        70         5       -4.316396e-01
        71         5       -1.544649e+00
        72         5       -8.535339e-01
        73         5        5.706219e-01
        74         5       -5.559576e-01
        75         5        1.357704e-01
        76         5        1.738124e-01
        77         5        7.272098e-02
        78         5        8.135828e-01
        79         5        1.151543e+00
        80         5        2.397232e-01
        81         5        2.978687e-01
        82         5       -8.548818e-01
        83         5       -7.138573e-01
        84         5       -1.607599e+00
        85         5       -1.785504e+00
        86         5       -4.916123e-01
        87         5       -1.077938e+00
        88         5       -4.152690e-01
        89         5        3.958798e-01
        90         5        1.608727e-01
        91         5        1.200533e+00
        92         5       -2.350061e-01
        93         5        6.878785e-01
        94         5       -1.903615e-01
        95         5        1.051695e+00
        96         5        8.610699e-01
        97         5        1.617793e-01
        98         5       -3.636475e-02
        99         5       -3.145741e-01
       100         5       -6.179811e-01
;

param theta:=
    1        2.014657e-01
    2       -4.896258e-01
    3       -5.505485e-01
    4        3.335154e-01
    5        1.249659e+00
;
param X_true:=
    1        4.881909e-01
    2        1.584317e+00
    3        1.879136e+00
    4        9.871545e-01
    5        5.565717e-01
    6        3.181884e-01
    7        3.267931e-01
    8       -4.090734e-01
    9       -2.153801e+00
   10       -1.870771e+00
   11        2.066228e+00
   12       -6.258319e-01
   13        6.783637e-01
   14       -6.171217e-01
   15        1.425083e+00
   16        2.575250e+00
   17       -2.687306e-01
   18        9.319319e-01
   19        7.719845e-02
   20        2.847759e+00
   21       -8.071078e-01
   22       -3.931870e-01
   23        1.895677e-01
   24        4.107568e-01
   25       -1.351301e+00
   26       -8.810325e-01
   27       -9.369246e-01
   28        7.228587e-01
   29        1.116001e+00
   30       -7.545519e-01
   31        9.632055e-01
   32        4.325798e-01
   33        1.098614e+00
   34        1.800018e+00
   35        2.800402e+00
   36       -2.662765e-02
   37       -5.935966e-02
   38       -1.213027e+00
   39       -2.046313e+00
   40        2.403515e-01
   41       -1.085771e+00
   42       -6.661099e-01
   43       -2.075467e-01
   44       -1.349237e-02
   45        9.956279e-01
   46       -7.717218e-02
   47        1.679792e+00
   48       -9.833583e-01
   49       -1.337292e+00
   50       -1.008544e+00
   51       -4.272933e-01
   52       -1.421698e+00
   53       -4.100211e-01
   54        8.828582e-01
   55        1.841083e+00
   56       -4.340340e-01
   57       -2.249639e-01
   58        8.764930e-01
   59       -7.399245e-02
   60       -2.997072e+00
   61        4.925454e-01
   62       -6.257066e-01
   63        1.033857e+00
   64       -2.824918e-01
   65        1.700325e-01
   66       -9.707229e-01
   67        1.295444e+00
   68       -4.287618e+00
   69       -5.485790e-01
   70        9.189587e-01
   71       -1.303443e+00
   72        3.044650e-01
   73        4.190051e-02
   74        1.485213e+00
   75        3.097635e-02
   76        1.338124e+00
   77        1.606832e-01
   78        1.500024e+00
   79        1.250038e+00
   80        1.525738e+00
   81       -1.257221e-01
   82       -1.532780e+00
   83       -5.357753e-01
   84       -1.676437e+00
   85       -1.122341e+00
   86       -1.023028e+00
   87       -8.049624e-01
   88       -2.027901e+00
   89        4.141251e-01
   90       -4.130459e-01
   91        1.649971e+00
   92       -4.749208e-01
   93        1.605231e+00
   94        1.099222e+00
   95       -9.276168e-01
   96        3.415974e-01
   97       -6.452436e-02
   98       -6.792132e-01
   99       -6.765126e-01
  100       -1.231246e+00
;
param X:=
    1        4.881909e-01
    2        1.286661e+00
    3       -1.605778e+00
    4        9.871545e-01
    5        5.565717e-01
    6       -1.464308e+00
    7        1.051121e+00
    8       -1.607886e+00
    9       -5.428469e-01
   10       -1.870771e+00
   11        2.066228e+00
   12       -6.258319e-01
   13       -1.525721e+00
   14       -1.321962e+00
   15       -1.354357e+00
   16        2.575250e+00
   17        1.455959e+00
   18       -8.390030e-01
   19        3.558698e-01
   20        2.044896e+00
   21       -1.025340e+00
   22       -1.169805e+00
   23       -1.109668e+00
   24       -1.300677e+00
   25       -1.351301e+00
   26       -1.943886e+00
   27       -9.369246e-01
   28       -7.110972e-01
   29       -8.479572e-01
   30       -7.446893e-01
   31       -6.009566e-01
   32        8.304396e-01
   33       -1.737368e-01
   34       -2.605781e-01
   35        2.800402e+00
   36        4.585478e-01
   37        1.553975e+00
   38       -3.762863e-01
   39        3.265663e-01
   40       -1.027595e+00
   41       -1.194304e+00
   42        3.366488e-01
   43       -2.075467e-01
   44       -9.361789e-01
   45       -7.803629e-01
   46       -2.469831e-01
   47        1.679792e+00
   48       -9.833583e-01
   49        4.019347e-01
   50       -1.352393e+00
   51        1.275738e+00
   52       -7.744668e-01
   53        1.156521e+00
   54        6.247830e-01
   55        1.390512e+00
   56       -4.340340e-01
   57        2.772997e-01
   58       -1.104057e+00
   59        1.485247e-02
   60        1.252761e+00
   61        4.925454e-01
   62       -6.707019e-01
   63        1.033857e+00
   64       -6.006373e-01
   65        1.700325e-01
   66       -9.707229e-01
   67        6.620416e-01
   68       -1.401740e+00
   69        1.467463e+00
   70       -6.176179e-01
   71       -1.303443e+00
   72       -8.862109e-01
   73        4.190051e-02
   74        1.485213e+00
   75        1.365455e+00
   76        3.374811e-01
   77        1.606832e-01
   78        1.500024e+00
   79        5.280395e-01
   80        6.226099e-02
   81       -1.257221e-01
   82       -9.735674e-01
   83        4.753830e-01
   84        2.279537e+00
   85       -1.122341e+00
   86       -3.552806e-01
   87       -3.715134e-01
   88       -2.027901e+00
   89       -1.356229e+00
   90        7.998471e-01
   91        1.649971e+00
   92        4.451033e-01
   93        9.441107e-01
   94        1.099222e+00
   95       -1.684752e+00
   96        3.415974e-01
   97        5.459248e-01
   98       -9.769308e-01
   99        8.955116e-01
  100       -1.231246e+00
;
param outliervec:=
    1    0
    2    1
    3    1
    4    0
    5    0
    6    1
    7    1
    8    1
    9    1
   10    0
   11    0
   12    0
   13    1
   14    1
   15    1
   16    0
   17    1
   18    1
   19    1
   20    1
   21    1
   22    1
   23    1
   24    1
   25    0
   26    1
   27    0
   28    1
   29    1
   30    1
   31    1
   32    1
   33    1
   34    1
   35    0
   36    1
   37    1
   38    1
   39    1
   40    1
   41    1
   42    1
   43    0
   44    1
   45    1
   46    1
   47    0
   48    0
   49    1
   50    1
   51    1
   52    1
   53    1
   54    1
   55    1
   56    0
   57    1
   58    1
   59    1
   60    1
   61    0
   62    1
   63    0
   64    1
   65    0
   66    0
   67    1
   68    1
   69    1
   70    1
   71    0
   72    1
   73    0
   74    0
   75    1
   76    1
   77    0
   78    0
   79    1
   80    1
   81    0
   82    1
   83    1
   84    1
   85    0
   86    1
   87    1
   88    0
   89    1
   90    1
   91    0
   92    1
   93    1
   94    0
   95    1
   96    0
   97    1
   98    1
   99    1
  100    0
;